Route #1: 28 69 1 50 76 77 68 80 12 26 4 39 67 23 56 75 41 22 74 72 73 21 40 58 53
Route #2: 96 99 5 84 17 100 98 37 59 92 97 95 94 13 54 55 25 24 29 78 34 35 65 71 9 51 81 33 79 3
Route #3: 18 60 83 45 46 8 82 48 47 36 49 64 63 11 19 62 10 90 32 66 20 30 70 31 88 7 52
Route #4: 87 42 2 57 15 43 14 38 44 86 16 61 91 85 93 6 89 27
Cost 774
